1
1000
249
495 1
493 1
492 1
492 1
492 1
490 1
489 1
488 1
487 1
487 1
486 1
484 1
482 1
481 1
480 1
479 1
476 1
476 1
472 1
470 1
467 1
467 1
465 1
459 1
459 1
458 1
457 1
456 1
456 1
455 1
451 1
449 1
447 1
441 1
441 1
439 1
437 1
437 1
436 1
434 1
434 1
432 1
418 1
416 1
415 1
414 1
413 1
412 1
410 1
410 1
408 1
406 1
406 1
404 1
404 1
402 1
400 1
399 1
399 1
397 1
395 1
393 1
393 1
393 1
387 1
387 1
386 1
385 1
384 1
382 1
382 1
381 1
380 1
380 1
379 1
377 1
377 1
372 1
372 1
371 1
368 1
367 1
363 1
363 1
361 1
360 1
360 1
358 1
357 1
356 1
356 1
355 1
354 1
353 1
352 1
350 1
348 1
345 1
340 1
338 1
337 1
335 1
334 1
331 1
330 1
329 1
328 1
326 1
325 1
324 1
323 1
322 1
321 1
320 1
318 1
318 1
315 1
315 1
312 1
310 1
310 1
310 1
310 1
308 1
306 1
305 1
304 1
302 1
302 1
302 1
302 1
299 1
296 1
295 1
294 1
293 1
293 1
293 1
292 1
292 1
291 1
291 1
291 1
290 1
290 1
290 1
290 1
289 1
288 1
286 1
286 1
286 1
284 1
282 1
282 1
281 1
281 1
280 1
280 1
279 1
279 1
278 1
277 1
276 1
276 1
274 1
274 1
273 1
273 1
272 1
272 1
271 1
271 1
270 1
267 1
267 1
266 1
266 1
266 1
266 1
266 1
266 1
265 1
265 1
265 1
264 1
263 1
263 1
263 1
263 1
263 1
262 1
262 1
262 1
262 1
262 1
261 1
261 1
260 1
260 1
260 1
259 1
259 1
258 1
258 1
258 1
258 1
258 1
257 1
257 1
257 1
257 1
256 1
256 1
256 1
256 1
256 1
256 1
256 1
255 1
255 1
254 1
254 1
254 1
254 1
253 1
253 1
253 1
253 1
253 1
252 1
252 1
252 1
252 1
252 1
252 1
252 1
252 1
251 1
251 1
251 1
251 1
250 1
250 1
250 1
250 1
250 1
250 1
250 1
